p tw 362 691
1 122
1 123
1 194
1 195
1 223
1 224
1 294
1 295
1 357
1 358
2 112
2 128
2 305
2 306
2 359
3 141
3 142
3 351
3 352
4 149
4 150
4 248
4 249
5 216
5 285
5 286
5 347
5 348
6 139
6 140
6 168
6 241
6 242
7 118
7 119
7 164
7 165
8 185
8 215
8 338
9 225
9 302
9 303
9 361
9 362
10 116
10 117
10 173
10 174
11 120
11 121
11 178
11 179
12 107
12 108
12 156
12 157
13 160
13 256
13 257
14 202
14 279
14 315
15 136
15 137
15 238
15 239
16 161
16 199
16 200
16 308
16 309
17 246
17 247
17 290
17 291
17 329
17 330
18 134
18 135
18 233
18 234
19 249
19 250
19 293
19 294
20 142
20 143
20 352
20 353
21 106
21 107
21 182
21 183
21 251
21 252
22 155
22 156
22 198
23 111
23 112
23 127
23 128
23 236
23 237
24 260
24 278
24 279
24 362
25 221
25 222
25 292
25 293
25 355
25 356
26 238
26 319
26 320
27 133
27 134
27 190
27 191
28 214
28 215
28 306
28 307
28 337
28 338
29 153
29 154
29 180
29 181
30 94
30 95
30 129
30 130
30 259
30 260
30 341
30 342
31 102
31 103
31 151
31 152
32 40
32 69
32 226
32 360
33 257
33 307
33 336
33 337
34 114
34 115
34 192
35 113
35 162
35 163
36 150
36 151
36 267
36 268
37 104
37 105
37 154
37 155
37 197
37 198
38 230
38 231
38 273
38 274
38 312
38 313
39 231
39 232
39 275
39 276
39 314
39 315
40 69
40 226
40 227
40 360
41 110
41 111
41 159
41 160
41 254
41 255
41 300
41 301
42 124
42 125
42 135
42 191
43 203
43 204
43 280
43 281
43 318
43 319
44 258
44 259
44 340
44 341
45 261
45 262
45 281
45 282
45 345
46 169
46 170
46 205
46 206
46 323
46 324
47 199
47 270
47 308
48 195
48 196
48 268
48 269
49 158
49 159
49 253
49 254
50 126
50 127
50 184
50 185
50 212
50 213
50 301
50 302
50 334
50 335
51 276
51 277
51 344
52 140
52 141
52 322
52 323
53 117
53 118
53 188
53 189
54 250
54 251
54 296
54 297
54 332
54 333
55 201
55 202
55 272
55 273
55 310
55 311
56 130
56 131
56 311
56 312
57 166
57 167
57 234
57 235
58 206
58 207
58 289
58 290
58 325
58 326
59 200
59 201
59 271
59 272
59 309
59 310
60 62
60 109
60 110
61 209
61 210
61 291
61 292
61 330
61 331
62 108
62 109
63 113
63 114
63 168
63 169
63 242
63 243
63 324
63 325
64 239
64 240
64 287
64 288
64 321
64 322
65 211
65 212
65 297
65 298
65 333
65 334
66 213
66 214
66 303
66 304
67 262
67 263
67 283
67 284
67 345
67 346
68 98
68 99
68 146
68 147
68 192
68 193
68 220
68 221
68 354
68 355
69 360
70 167
70 237
70 316
71 80
71 186
71 339
71 340
72 203
72 280
72 316
72 317
73 129
73 161
73 162
73 228
73 229
73 270
73 271
74 97
74 98
74 144
74 145
74 243
74 244
75 263
75 264
75 284
75 285
75 346
75 347
76 265
76 266
76 288
76 289
76 350
76 351
77 171
77 172
77 326
77 327
78 224
78 225
78 299
78 300
78 361
79 138
79 139
79 218
79 219
80 274
80 275
80 343
80 344
81 92
81 136
81 216
81 217
82 261
82 282
82 283
83 264
83 265
83 286
83 287
83 348
83 349
84 255
84 256
84 304
84 305
84 335
84 336
85 269
85 298
85 299
85 358
85 359
86 174
86 175
86 245
86 246
87 222
87 223
87 295
87 296
87 356
87 357
88 96
88 97
88 131
88 132
89 100
89 101
89 148
89 149
89 176
89 177
89 208
89 209
89 328
89 329
90 204
90 205
90 320
90 321
91 92
91 93
91 186
91 187
92 93
93 94
94 95
95 96
96 97
97 98
98 99
99 100
100 101
101 102
102 103
103 104
104 105
105 106
106 107
107 108
108 109
109 110
110 111
111 112
113 114
114 115
115 116
116 117
117 118
118 119
119 120
120 121
121 122
122 123
123 124
124 125
125 126
126 127
127 128
129 130
130 131
131 132
132 133
133 134
134 135
136 137
137 138
138 139
139 140
140 141
141 142
142 143
143 144
144 145
145 146
146 147
147 148
148 149
149 150
150 151
151 152
152 153
153 154
154 155
155 156
156 157
157 158
158 159
159 160
161 162
162 163
163 164
164 165
165 166
166 167
168 169
169 170
170 171
171 172
172 173
173 174
174 175
175 176
176 177
177 178
178 179
179 180
180 181
181 182
182 183
183 184
184 185
186 187
187 188
188 189
189 190
190 191
192 193
193 194
194 195
195 196
196 197
197 198
199 200
200 201
201 202
203 204
204 205
205 206
206 207
207 208
208 209
209 210
210 211
211 212
212 213
213 214
214 215
216 217
217 218
218 219
219 220
220 221
221 222
222 223
223 224
224 225
226 227
227 228
228 229
229 230
230 231
231 232
232 233
233 234
234 235
235 236
236 237
238 239
239 240
240 241
241 242
242 243
243 244
244 245
245 246
246 247
247 248
248 249
249 250
250 251
251 252
252 253
253 254
254 255
255 256
256 257
258 259
258 339
259 260
261 262
262 263
263 264
264 265
265 266
266 267
267 268
268 269
270 271
271 272
272 273
273 274
274 275
275 276
276 277
277 278
278 279
280 281
281 282
282 283
283 284
284 285
285 286
286 287
287 288
288 289
289 290
290 291
291 292
292 293
293 294
294 295
295 296
296 297
297 298
298 299
299 300
300 301
301 302
302 303
303 304
304 305
305 306
306 307
308 309
309 310
310 311
311 312
312 313
313 314
314 315
316 317
317 318
318 319
319 320
320 321
321 322
322 323
323 324
324 325
325 326
326 327
327 328
328 329
329 330
330 331
331 332
332 333
333 334
334 335
335 336
336 337
337 338
339 340
340 341
341 342
342 343
343 344
345 346
346 347
347 348
348 349
349 350
350 351
351 352
352 353
353 354
354 355
355 356
356 357
357 358
358 359
361 362
